feasible solution found by trivial heuristic after 0.2 seconds, objective value 0.000000e+00
presolving:
   (0.3s) running MILP presolver
   (0.5s) MILP presolver (3 rounds): 0 aggregations, 5225 fixings, 0 bound changes
(round 1, medium)     5225 del vars, 29812 del conss, 24387 add conss, 0 chg bounds, 0 chg sides, 0 chg coeffs, 0 upgd conss, 0 impls, 13936 clqs
(round 2, fast)       10450 del vars, 35037 del conss, 24387 add conss, 0 chg bounds, 0 chg sides, 0 chg coeffs, 0 upgd conss, 0 impls, 13936 clqs
   (0.7s) running MILP presolver
   (0.8s) MILP presolver found nothing
(round 3, exhaustive) 10450 del vars, 35037 del conss, 24387 add conss, 0 chg bounds, 0 chg sides, 0 chg coeffs, 19161 upgd conss, 0 impls, 13936 clqs
(round 4, fast)       15675 del vars, 35037 del conss, 24387 add conss, 0 chg bounds, 0 chg sides, 0 chg coeffs, 19161 upgd conss, 0 impls, 13936 clqs
(round 5, fast)       15675 del vars, 35037 del conss, 24387 add conss, 0 chg bounds, 0 chg sides, 5225 chg coeffs, 19161 upgd conss, 0 impls, 13936 clqs
   (1.0s) running MILP presolver
   (1.0s) MILP presolver (2 rounds): 0 aggregations, 0 fixings, 0 bound changes
(round 6, exhaustive) 15675 del vars, 35227 del conss, 24387 add conss, 0 chg bounds, 0 chg sides, 5225 chg coeffs, 19161 upgd conss, 0 impls, 13936 clqs
   (1.3s) probing: 51/421 (12.1%) - 0 fixings, 0 aggregations, 0 implications, 0 bound changes
   (1.3s) probing aborted: 50/50 successive totally useless probings
   (1.4s) symmetry computation started: requiring (bin +, int -, cont +), (fixed: bin -, int +, cont -)
   (1.4s) no symmetry present
presolving (7 rounds: 7 fast, 4 medium, 3 exhaustive):
 15675 deleted vars, 35227 deleted constraints, 24387 added constraints, 0 tightened bounds, 0 added holes, 0 changed sides, 5225 changed coefficients
 0 implications, 13936 cliques
presolved problem has 421 variables (421 bin, 0 int, 0 impl, 0 cont) and 18972 constraints
  13746 constraints of type <setppc>
      1 constraints of type <linear>
   5225 constraints of type <logicor>
Presolving Time: 1.32
transformed 1/2 original solutions to the transformed problem space

 time | node  | left  |LP iter|LP it/n|mem/heur|mdpt |vars |cons |rows |cuts |sepa|confs|strbr|  dualbound   | primalbound  |  gap   | compl. 
p 1.5s|     1 |     0 |     0 |     - |  clique|   0 | 421 |  18k|  18k|   0 |  0 |   0 |   0 | 3.770585e+02 | 1.120491e+01 |3265.12%| unknown
p 1.6s|     1 |     0 |     0 |     - | vbounds|   0 | 421 |  18k|  18k|   0 |  0 |   0 |   0 | 3.770585e+02 | 1.180508e+01 |3094.04%| unknown
p 1.7s|     1 |     0 |     0 |     - | vbounds|   0 | 421 |  18k|  18k|   0 |  0 |   0 |   0 | 3.770585e+02 | 1.532305e+01 |2360.73%| unknown
  1.8s|     1 |     0 |   485 |     - |   123M |   0 | 421 |  18k|  18k|   0 |  0 |   0 |   0 | 3.933907e+01 | 1.532305e+01 | 156.73%| unknown
  2.5s|     1 |     0 |   549 |     - |   126M |   0 | 421 |  18k|  18k|   7 |  1 |   0 |   0 | 3.805102e+01 | 1.532305e+01 | 148.33%| unknown
  3.2s|     1 |     0 |   593 |     - |   128M |   0 | 421 |  18k|  18k|  12 |  2 |   0 |   0 | 3.748565e+01 | 1.532305e+01 | 144.64%| unknown
r 3.3s|     1 |     0 |   593 |     - |randroun|   0 | 421 |  18k|  18k|   0 |  2 |   0 |   0 | 3.748565e+01 | 1.560946e+01 | 140.15%| unknown
  4.0s|     1 |     0 |   623 |     - |   130M |   0 | 421 |  18k|  18k|  18 |  3 |   0 |   0 | 3.686530e+01 | 1.560946e+01 | 136.17%| unknown
i 4.0s|     1 |     0 |   623 |     - |  oneopt|   0 | 421 |  18k|  18k|  18 |  3 |   0 |   0 | 3.686530e+01 | 2.150847e+01 |  71.40%| unknown
  4.7s|     1 |     0 |   661 |     - |   133M |   0 | 421 |  18k|  18k|  24 |  4 |   0 |   0 | 3.652945e+01 | 2.150847e+01 |  69.84%| unknown
  5.7s|     1 |     0 |   704 |     - |   135M |   0 | 421 |  18k|  19k|  32 |  5 |   0 |   0 | 3.629421e+01 | 2.150847e+01 |  68.74%| unknown
  6.8s|     1 |     0 |   769 |     - |   137M |   0 | 421 |  18k|  19k|  38 |  6 |   0 |   0 | 3.591718e+01 | 2.150847e+01 |  66.99%| unknown
  7.7s|     1 |     0 |   862 |     - |   139M |   0 | 421 |  18k|  19k|  45 |  7 |   0 |   0 | 3.540372e+01 | 2.150847e+01 |  64.60%| unknown
  9.3s|     1 |     0 |   909 |     - |   142M |   0 | 421 |  18k|  19k|  51 |  8 |   0 |   0 | 3.513080e+01 | 2.150847e+01 |  63.33%| unknown
 10.4s|     1 |     0 |   976 |     - |   144M |   0 | 421 |  18k|  19k|  56 |  9 |   0 |   0 | 3.480285e+01 | 2.150847e+01 |  61.81%| unknown
 time | node  | left  |LP iter|LP it/n|mem/heur|mdpt |vars |cons |rows |cuts |sepa|confs|strbr|  dualbound   | primalbound  |  gap   | compl. 
 13.0s|     1 |     0 |  1046 |     - |   147M |   0 | 421 |  18k|  19k|  62 | 10 |   0 |   0 | 3.454063e+01 | 2.150847e+01 |  60.59%| unknown
 13.2s|     1 |     0 |  1099 |     - |   149M |   0 | 421 |  18k|  19k|  67 | 11 |   0 |   0 | 3.438574e+01 | 2.150847e+01 |  59.87%| unknown
r13.2s|     1 |     0 |  1099 |     - |randroun|   0 | 421 |  18k|  19k|   0 | 11 |   0 |   0 | 3.438574e+01 | 2.203454e+01 |  56.05%| unknown
 13.2s|     1 |     0 |  1150 |     - |   151M |   0 | 421 |  18k|  19k|  70 | 12 |   0 |   0 | 3.425178e+01 | 2.203454e+01 |  55.45%| unknown
i13.3s|     1 |     0 |  1150 |     - |  oneopt|   0 | 421 |  18k|  19k|  70 | 12 |   0 |   0 | 3.425178e+01 | 2.863152e+01 |  19.63%| unknown
 13.4s|     1 |     0 |  1180 |     - |   153M |   0 | 421 |  18k|  19k|  74 | 13 |   0 |   0 | 3.417946e+01 | 2.863152e+01 |  19.38%| unknown
 13.5s|     1 |     0 |  1220 |     - |   155M |   0 | 421 |  18k|  19k|  80 | 14 |   0 |   0 | 3.410760e+01 | 2.863152e+01 |  19.13%| unknown
 13.6s|     1 |     0 |  1233 |     - |   157M |   0 | 421 |  18k|  19k|  81 | 15 |   0 |   0 | 3.409119e+01 | 2.863152e+01 |  19.07%| unknown
 13.7s|     1 |     0 |  1323 |     - |   159M |   0 | 421 |  18k|  19k|  92 | 16 |   0 |   0 | 3.381077e+01 | 2.863152e+01 |  18.09%| unknown
 13.8s|     1 |     0 |  1370 |     - |   161M |   0 | 421 |  18k|  19k|  96 | 17 |   0 |   0 | 3.376629e+01 | 2.863152e+01 |  17.93%| unknown
 13.9s|     1 |     0 |  1430 |     - |   163M |   0 | 421 |  18k|  19k| 101 | 18 |   0 |   0 | 3.368760e+01 | 2.863152e+01 |  17.66%| unknown
 14.0s|     1 |     0 |  1445 |     - |   165M |   0 | 421 |  18k|  19k| 104 | 19 |   0 |   0 | 3.368057e+01 | 2.863152e+01 |  17.63%| unknown
 14.0s|     1 |     0 |  1449 |     - |   167M |   0 | 421 |  18k|  19k| 105 | 20 |   0 |   0 | 3.367766e+01 | 2.863152e+01 |  17.62%| unknown
 14.1s|     1 |     0 |  1496 |     - |   167M |   0 | 421 |  18k|  19k| 111 | 21 |   0 |   0 | 3.362559e+01 | 2.863152e+01 |  17.44%| unknown
 14.2s|     1 |     0 |  1554 |     - |   167M |   0 | 421 |  18k|  19k| 117 | 22 |   0 |   0 | 3.353915e+01 | 2.863152e+01 |  17.14%| unknown
 time | node  | left  |LP iter|LP it/n|mem/heur|mdpt |vars |cons |rows |cuts |sepa|confs|strbr|  dualbound   | primalbound  |  gap   | compl. 
 14.3s|     1 |     0 |  1572 |     - |   167M |   0 | 421 |  18k|  19k| 122 | 23 |   0 |   0 | 3.352593e+01 | 2.863152e+01 |  17.09%| unknown
 14.3s|     1 |     0 |  1617 |     - |   167M |   0 | 421 |  18k|  19k| 125 | 24 |   0 |   0 | 3.348564e+01 | 2.863152e+01 |  16.95%| unknown
 14.4s|     1 |     0 |  1626 |     - |   167M |   0 | 421 |  18k|  19k| 127 | 25 |   0 |   0 | 3.348069e+01 | 2.863152e+01 |  16.94%| unknown
 14.4s|     1 |     0 |  1644 |     - |   168M |   0 | 421 |  18k|  19k| 131 | 26 |   0 |   0 | 3.347342e+01 | 2.863152e+01 |  16.91%| unknown
 14.5s|     1 |     0 |  1645 |     - |   168M |   0 | 421 |  18k|  19k| 132 | 27 |   0 |   0 | 3.347322e+01 | 2.863152e+01 |  16.91%| unknown
 14.5s|     1 |     0 |  1648 |     - |   168M |   0 | 421 |  18k|  19k| 133 | 28 |   0 |   0 | 3.347299e+01 | 2.863152e+01 |  16.91%| unknown
 14.6s|     1 |     0 |  1703 |     - |   168M |   0 | 421 |  18k|  19k| 142 | 29 |   0 |   0 | 3.339516e+01 | 2.863152e+01 |  16.64%| unknown
 14.7s|     1 |     0 |  1726 |     - |   168M |   0 | 421 |  18k|  19k| 145 | 30 |   0 |   0 | 3.337217e+01 | 2.863152e+01 |  16.56%| unknown
 14.7s|     1 |     0 |  1733 |     - |   168M |   0 | 421 |  18k|  19k| 147 | 31 |   0 |   0 | 3.337010e+01 | 2.863152e+01 |  16.55%| unknown
 14.8s|     1 |     0 |  1750 |     - |   168M |   0 | 421 |  18k|  19k| 152 | 33 |   0 |   0 | 3.336600e+01 | 2.863152e+01 |  16.54%| unknown
 15.0s|     1 |     0 |  1778 |     - |   168M |   0 | 421 |  18k|  19k| 156 | 34 |   0 |   0 | 3.335002e+01 | 2.863152e+01 |  16.48%| unknown
 15.1s|     1 |     0 |  1788 |     - |   169M |   0 | 421 |  18k|  19k| 158 | 35 |   0 |   0 | 3.334700e+01 | 2.863152e+01 |  16.47%| unknown
 15.2s|     1 |     0 |  1807 |     - |   169M |   0 | 421 |  18k|  19k| 162 | 36 |   0 |   0 | 3.334462e+01 | 2.863152e+01 |  16.46%| unknown
 15.2s|     1 |     0 |  1819 |     - |   169M |   0 | 421 |  18k|  19k| 164 | 37 |   0 |   0 | 3.334326e+01 | 2.863152e+01 |  16.46%| unknown
 15.3s|     1 |     0 |  1825 |     - |   169M |   0 | 421 |  18k|  19k| 165 | 38 |   0 |   0 | 3.334188e+01 | 2.863152e+01 |  16.45%| unknown
 time | node  | left  |LP iter|LP it/n|mem/heur|mdpt |vars |cons |rows |cuts |sepa|confs|strbr|  dualbound   | primalbound  |  gap   | compl. 
d16.1s|     1 |     0 |  2441 |     - |farkasdi|   0 | 421 |  18k|  19k|   0 | 40 |   4 |   0 | 3.334188e+01 | 2.866486e+01 |  16.32%| unknown
d16.6s|     1 |     0 |  2872 |     - |conflict|   0 | 421 |  18k|  19k|   0 | 40 |   8 |   0 | 3.334188e+01 | 2.934114e+01 |  13.64%| unknown
L19.3s|     1 |     0 |  2903 |     - |    rens|   0 | 421 |  18k|  19k| 165 | 40 |   9 |   0 | 3.334188e+01 | 3.043788e+01 |   9.54%| unknown
L19.5s|     1 |     0 |  2903 |     - |    alns|   0 | 421 |  18k|  19k| 165 | 40 |   9 |   0 | 3.334188e+01 | 3.048557e+01 |   9.37%| unknown
L19.6s|     1 |     0 |  2903 |     - |    alns|   0 | 421 |  18k|  19k| 165 | 40 |   9 |   0 | 3.334188e+01 | 3.051156e+01 |   9.28%| unknown
 19.6s|     1 |     0 |  2903 |     - |   170M |   0 | 421 |  18k|  19k| 165 | 40 |   9 |   0 | 3.334188e+01 | 3.051156e+01 |   9.28%| unknown
 19.7s|     1 |     0 |  2903 |     - |   171M |   0 | 421 |  18k|  18k| 165 | 40 |   9 |   0 | 3.334188e+01 | 3.051156e+01 |   9.28%| unknown
 19.7s|     1 |     0 |  2905 |     - |   171M |   0 | 421 |  18k|  18k| 166 | 41 |   9 |   0 | 3.334186e+01 | 3.051156e+01 |   9.28%| unknown
 25.0s|     1 |     2 |  2905 |     - |   171M |   0 | 421 |  18k|  18k| 166 | 42 |   9 |  42 | 3.304911e+01 | 3.051156e+01 |   8.32%| unknown
*51.0s|    43 |     7 |  5827 |  95.2 |strongbr|  10 | 421 |  18k|  18k| 170 |  2 | 113 | 542 | 3.281131e+01 | 3.085495e+01 |   6.34%|  33.06%
*51.4s|    44 |     8 |  5907 |  94.9 |strongbr|  10 | 421 |  18k|  18k| 170 |  2 | 117 | 559 | 3.281131e+01 | 3.103588e+01 |   5.72%|  33.06%
r51.7s|    46 |     8 |  6003 |  92.8 |simplero|  10 | 421 |  18k|  18k| 170 |  2 | 119 | 573 | 3.281131e+01 | 3.123868e+01 |   5.03%|  35.84%
r71.8s|    79 |    13 |  7216 |  69.1 |shifting|  15 | 421 |  18k|  18k| 208 |  3 | 147 | 669 | 3.281131e+01 | 3.135087e+01 |   4.66%|  39.60%
 77.7s|   100 |     8 |  8001 |  62.4 |   204M |  15 | 421 |  18k|  18k| 224 |  2 | 149 | 693 | 3.270833e+01 | 3.135087e+01 |   4.33%|  53.09%
r88.3s|   144 |     4 |  9826 |  55.9 |simplero|  15 | 421 |  17k|  18k| 250 |  0 | 167 | 734 | 3.226673e+01 | 3.136401e+01 |   2.88%|  84.19%
 time | node  | left  |LP iter|LP it/n|mem/heur|mdpt |vars |cons |rows |cuts |sepa|confs|strbr|  dualbound   | primalbound  |  gap   | compl. 
r88.4s|   145 |     5 |  9847 |  55.7 |simplero|  15 | 421 |  17k|  18k| 250 |  0 | 167 | 734 | 3.226673e+01 | 3.137222e+01 |   2.85%|  84.19%
r88.5s|   147 |     7 |  9850 |  55.0 |rounding|  15 | 421 |  17k|  18k| 250 |  0 | 167 | 734 | 3.226673e+01 | 3.143969e+01 |   2.63%|  84.19%
r93.0s|   180 |     6 | 11099 |  51.8 |rounding|  17 | 421 |  17k|  18k| 253 |  0 | 187 | 853 | 3.226673e+01 | 3.146627e+01 |   2.54%|  88.75%
 93.9s|   200 |     4 | 11407 |  48.1 |   210M |  17 | 421 |  17k|  18k| 253 |  1 | 189 | 872 | 3.226673e+01 | 3.146627e+01 |   2.54%|  90.80%

SCIP Status        : problem is solved [optimal solution found]
Solving Time (sec) : 95.83
Solving Nodes      : 214
Primal Bound       : +3.14662726542782e+01 (399 solutions)
Dual Bound         : +3.14662726542782e+01
Gap                : 0.00 %
Solve Status: optimal
Solve Time: 95.85 seconds
